NAME: ville01
TYPE: TSP
COMMENT: 29 Cities in Bavaria, geographical distances (Groetschel,Juenger,Reinelt)
DIMENSION: 29
EDGE_WEIGHT_TYPE: EXPLICIT
EDGE_WEIGHT_FORMAT: UPPER_ROW 
DISPLAY_DATA_TYPE: TWOD_DISPLAY
EDGE_WEIGHT_SECTION
 97 205 139  86  60 220  65 111 115 227  95
129 103  71 105 258 154 112  65 204 150
219 125 175 386 269 134 184 313 201
167 182 180 162 208  39 102 227
 51 296 150  42 131 268  88
279 114  56 150 278  46
178 328 206 147 308
169 151 227 133
172 309  68
140 195
320
DISPLAY_DATA_SECTION
    1      1.0      6.0
    2      2.0      3.0
    3      3.0      5.0
    4      6.0      2.0
    5      7.0      5.0
    6      5.0      4.0
    7      8.0      2.0
    8      9.0     11.0
    9      4.0     10.0
   10     12.0      8.0
   11     13.0      7.0
   12      5.0      7.0
EOF
